
Gurobi 6.5.2 (win64) logging started 07/23/16 03:32:36


Gurobi 6.5.2 (win64) logging started 07/23/16 03:32:36

Optimize a model with 22737 rows, 1421 columns and 49481 nonzeros
Coefficient statistics:
  Matrix range    [4e-06, 1e+03]
  Objective range [1e+00, 1e+00]
  Bounds range    [1e+00, 1e+00]
  RHS range       [1e+00, 1e+03]
Found heuristic solution: objective 480.898
Presolve removed 22708 rows and 1393 columns
Presolve time: 0.01s
Presolved: 29 rows, 28 columns, 86 nonzeros
Found heuristic solution: objective 285.2932024
Variable types: 28 continuous, 0 integer (0 binary)

Root relaxation: objective 2.370117e+02, 21 iterations, 0.00 seconds

    Nodes    |    Current Node    |     Objective Bounds      |     Work
 Expl Unexpl |  Obj  Depth IntInf | Incumbent    BestBd   Gap | It/Node Time

*    0     0               0     237.0117006  237.01170  0.00%     -    0s

Explored 0 nodes (21 simplex iterations) in 0.02 seconds
Thread count was 8 (of 8 available processors)

Optimal solution found (tolerance 1.00e-04)
Best objective 2.370117005815e+02, best bound 2.370117005815e+02, gap 0.0%

Wrote requested result file 'H2\instance26\\Results26EC_Sol5.lp'

